jobs  (incl. supersource/sink ):	102
RESOURCES
- renewable                 : 4 R
- nonrenewable              : 2 N
- doubly constrained        : 0 D
************************************************************************
PRECEDENCE RELATIONS:
jobnr.    #modes  #successors   successors
1	1	31		2 3 4 5 6 7 8 9 10 11 12 13 14 15 17 18 19 20 21 23 24 26 27 29 31 33 35 36 38 39 40 
2	6	16		97 96 73 72 71 68 67 62 59 57 56 50 49 47 42 16 
3	6	17		101 99 97 71 70 67 61 60 59 58 57 54 48 47 45 34 28 
4	6	22		99 98 97 96 95 94 71 70 69 68 67 64 61 60 59 53 51 50 49 48 46 42 
5	6	11		98 96 95 71 60 57 49 41 30 25 22 
6	6	9		98 96 57 46 45 41 32 25 22 
7	6	14		101 98 96 73 68 67 64 63 57 49 48 45 43 30 
8	6	15		97 90 89 72 70 69 68 65 61 60 59 51 47 42 34 
9	6	20		101 99 98 97 96 95 94 93 91 87 69 68 67 62 59 53 52 51 48 46 
10	6	18		99 98 97 95 93 91 71 69 68 67 63 59 57 54 53 51 49 46 
11	6	14		98 96 93 92 90 72 68 62 56 52 51 47 45 37 
12	6	17		100 96 91 85 73 72 71 68 67 62 61 59 58 55 51 44 43 
13	6	17		99 98 96 95 93 89 87 72 70 68 66 58 56 51 49 45 42 
14	6	12		99 98 96 94 73 68 67 59 53 51 42 32 
15	6	7		95 66 65 57 56 41 22 
16	6	11		100 98 93 91 85 58 55 53 51 46 43 
17	6	10		98 97 96 93 90 66 53 51 45 42 
18	6	19		96 93 92 91 90 89 87 86 83 82 76 74 72 68 67 61 59 56 52 
19	6	13		99 97 95 91 90 84 71 69 65 61 60 59 42 
20	6	13		98 97 96 91 89 80 74 69 68 59 52 51 42 
21	6	15		99 95 93 92 91 89 85 81 80 73 66 65 59 55 51 
22	6	16		99 97 92 90 89 87 83 81 77 76 74 67 61 59 55 52 
23	6	13		99 93 90 84 80 78 74 73 71 70 69 66 42 
24	6	12		96 95 91 89 88 87 79 73 71 68 58 51 
25	6	14		100 97 92 91 90 87 82 81 79 77 67 66 65 56 
26	6	13		97 96 95 93 85 84 82 78 75 67 60 59 57 
27	6	12		97 89 87 83 80 79 74 72 70 66 55 52 
28	6	11		100 95 91 90 87 85 81 80 65 55 51 
29	6	10		99 93 91 85 74 73 71 63 55 51 
30	6	5		93 76 65 51 42 
31	6	15		100 98 97 95 91 90 88 87 85 82 79 75 70 65 60 
32	6	14		97 93 92 91 90 87 84 80 79 77 76 72 65 62 
33	6	13		94 89 87 86 85 82 81 80 79 76 75 65 51 
34	6	13		98 96 93 91 87 83 80 79 77 76 74 62 56 
35	6	12		99 96 89 86 83 81 80 79 77 76 74 52 
36	6	11		98 95 93 89 87 84 78 75 66 60 59 
37	6	10		99 95 94 89 85 78 77 67 59 57 
38	6	8		95 84 80 79 77 75 69 46 
39	6	8		95 85 81 79 75 66 58 51 
40	6	11		97 96 95 90 88 87 78 76 75 65 60 
41	6	12		93 92 90 89 87 86 82 81 80 79 75 74 
42	6	8		92 88 85 83 81 79 77 55 
43	6	8		87 80 78 75 70 69 65 60 
44	6	9		90 89 86 82 80 77 75 74 66 
45	6	6		94 91 80 77 65 55 
46	6	6		92 90 83 81 66 65 
47	6	6		95 87 83 79 74 66 
48	6	3		89 88 55 
49	6	5		90 85 81 79 74 
50	6	5		93 91 87 76 74 
51	6	4		84 83 78 77 
52	6	4		85 84 78 75 
53	6	4		89 79 77 74 
54	6	1		55 
55	6	3		86 82 75 
56	6	3		94 78 75 
57	6	3		81 76 74 
58	6	2		80 65 
59	6	2		88 79 
60	6	2		77 74 
61	6	2		80 78 
62	6	2		78 75 
63	6	2		94 87 
64	6	1		65 
65	6	1		74 
66	6	1		76 
67	6	1		80 
68	6	1		81 
69	6	1		76 
70	6	1		76 
71	6	1		75 
72	6	1		81 
73	6	1		82 
74	6	1		102 
75	6	1		102 
76	6	1		102 
77	6	1		102 
78	6	1		102 
79	6	1		102 
80	6	1		102 
81	6	1		102 
82	6	1		102 
83	6	1		102 
84	6	1		102 
85	6	1		102 
86	6	1		102 
87	6	1		102 
88	6	1		102 
89	6	1		102 
90	6	1		102 
91	6	1		102 
92	6	1		102 
93	6	1		102 
94	6	1		102 
95	6	1		102 
96	6	1		102 
97	6	1		102 
98	6	1		102 
99	6	1		102 
100	6	1		102 
101	6	1		102 
102	1	0		
************************************************************************
REQUESTS/DURATIONS
jobnr.	mode	dur	R1	R2	R3	R4	N1	N2	
------------------------------------------------------------------------
1	1	0	0	0	0	0	0	0	
2	1	2	3	2	5	4	19	23	
	2	3	3	1	4	3	14	22	
	3	6	3	1	3	3	11	21	
	4	14	3	1	3	2	9	18	
	5	15	3	1	3	2	5	18	
	6	30	3	1	2	1	2	17	
3	1	2	3	4	2	1	11	22	
	2	21	3	3	1	1	10	20	
	3	26	3	3	1	1	9	18	
	4	27	3	2	1	1	7	14	
	5	28	2	2	1	1	7	12	
	6	29	2	2	1	1	5	11	
4	1	2	3	4	5	3	13	7	
	2	20	3	3	4	2	12	7	
	3	25	3	3	3	2	11	7	
	4	26	3	2	3	2	11	6	
	5	27	3	2	1	1	11	6	
	6	30	3	1	1	1	10	6	
5	1	3	5	5	5	4	26	9	
	2	4	4	3	5	4	20	7	
	3	6	4	3	5	4	18	7	
	4	9	3	3	5	4	14	7	
	5	24	3	2	5	4	10	5	
	6	25	3	1	5	4	4	5	
6	1	4	5	5	4	3	14	7	
	2	6	4	4	4	3	11	7	
	3	13	4	4	4	3	8	7	
	4	14	4	3	4	3	7	7	
	5	15	4	2	4	3	5	7	
	6	29	4	2	4	3	1	7	
7	1	3	3	5	3	5	20	6	
	2	4	3	4	3	3	20	5	
	3	7	3	3	3	3	20	5	
	4	10	2	3	3	2	20	5	
	5	11	2	3	3	1	19	4	
	6	12	1	2	3	1	19	4	
8	1	2	3	5	5	3	25	26	
	2	9	3	5	4	2	23	25	
	3	14	3	5	3	2	22	24	
	4	15	2	5	3	2	20	23	
	5	16	1	5	2	2	17	23	
	6	29	1	5	2	2	17	22	
9	1	1	5	4	4	2	3	29	
	2	2	5	4	4	2	3	24	
	3	3	5	4	4	2	3	23	
	4	6	5	4	4	1	2	17	
	5	10	5	3	4	1	2	16	
	6	12	5	3	4	1	2	11	
10	1	3	4	2	4	5	20	15	
	2	4	3	2	3	4	18	15	
	3	11	3	2	3	3	16	14	
	4	14	3	2	3	2	15	13	
	5	16	2	2	3	1	12	12	
	6	29	2	2	3	1	9	11	
11	1	3	4	5	1	3	29	5	
	2	9	3	4	1	3	28	5	
	3	10	3	3	1	3	26	4	
	4	11	2	3	1	3	25	3	
	5	12	1	3	1	2	25	2	
	6	13	1	2	1	2	24	2	
12	1	3	1	1	1	4	29	9	
	2	6	1	1	1	4	28	7	
	3	21	1	1	1	4	28	6	
	4	23	1	1	1	4	27	5	
	5	24	1	1	1	4	26	4	
	6	27	1	1	1	4	26	3	
13	1	7	5	4	2	4	27	13	
	2	10	3	3	2	4	26	12	
	3	13	3	3	2	4	22	9	
	4	16	3	3	2	4	21	8	
	5	21	2	3	2	4	20	4	
	6	22	1	3	2	4	16	4	
14	1	2	5	3	1	4	28	21	
	2	5	4	3	1	3	26	20	
	3	6	4	3	1	3	22	20	
	4	14	3	3	1	3	21	20	
	5	18	3	3	1	1	18	20	
	6	21	2	3	1	1	15	20	
15	1	8	4	5	3	3	22	26	
	2	13	3	3	3	3	20	23	
	3	14	3	3	3	2	20	21	
	4	24	3	3	3	2	19	20	
	5	28	3	1	2	1	17	17	
	6	29	3	1	2	1	16	11	
16	1	9	3	1	5	3	6	27	
	2	10	3	1	4	3	6	22	
	3	12	2	1	4	3	5	16	
	4	16	2	1	4	3	4	11	
	5	18	1	1	4	3	3	8	
	6	21	1	1	4	3	3	5	
17	1	2	4	2	5	5	20	18	
	2	3	4	2	4	4	19	15	
	3	13	4	2	4	4	18	13	
	4	15	4	1	4	4	18	12	
	5	18	4	1	4	4	18	10	
	6	25	4	1	4	4	17	10	
18	1	5	5	4	3	2	26	16	
	2	8	4	4	3	2	25	15	
	3	10	3	3	3	2	23	13	
	4	11	2	3	3	2	22	10	
	5	14	2	3	3	1	22	7	
	6	30	1	2	3	1	20	3	
19	1	4	2	4	3	5	24	23	
	2	5	2	3	2	3	21	22	
	3	7	2	3	2	3	21	19	
	4	13	2	3	1	2	19	17	
	5	24	2	3	1	2	17	16	
	6	27	2	3	1	1	16	13	
20	1	7	4	3	2	3	6	27	
	2	9	3	3	1	3	5	21	
	3	15	3	3	1	3	4	18	
	4	25	3	3	1	3	3	16	
	5	28	2	2	1	3	2	10	
	6	29	2	2	1	3	1	9	
21	1	1	3	2	1	5	30	2	
	2	4	3	2	1	4	22	2	
	3	9	3	2	1	4	20	2	
	4	10	2	2	1	4	14	1	
	5	23	2	1	1	4	9	1	
	6	26	1	1	1	4	9	1	
22	1	2	4	3	4	4	28	23	
	2	6	4	3	3	3	26	20	
	3	11	4	3	3	3	23	17	
	4	12	3	2	2	3	20	17	
	5	19	2	2	1	3	20	11	
	6	20	2	2	1	3	18	11	
23	1	9	3	5	3	4	22	17	
	2	10	3	4	2	4	22	17	
	3	19	3	3	2	4	21	15	
	4	23	2	3	2	4	20	15	
	5	24	2	1	1	3	19	13	
	6	30	2	1	1	3	19	12	
24	1	3	2	5	3	4	19	25	
	2	9	1	5	3	4	17	24	
	3	15	1	5	2	4	16	23	
	4	17	1	5	2	4	13	21	
	5	18	1	5	2	4	12	21	
	6	29	1	5	1	4	11	19	
25	1	11	2	5	3	3	25	22	
	2	20	2	4	3	2	25	20	
	3	25	2	4	3	2	24	16	
	4	26	2	4	3	2	24	12	
	5	27	2	4	2	2	24	10	
	6	29	2	4	2	2	23	5	
26	1	7	4	2	4	2	20	13	
	2	14	4	2	3	1	18	10	
	3	15	3	2	3	1	17	10	
	4	16	3	2	2	1	17	7	
	5	20	3	2	1	1	15	6	
	6	21	2	2	1	1	14	2	
27	1	3	5	3	3	3	9	15	
	2	5	4	2	2	2	7	13	
	3	20	3	2	2	2	7	10	
	4	21	3	2	2	1	6	10	
	5	22	3	2	1	1	4	7	
	6	29	2	2	1	1	4	5	
28	1	1	1	3	4	2	11	11	
	2	7	1	3	4	2	10	10	
	3	10	1	3	3	2	9	9	
	4	18	1	2	3	2	9	8	
	5	26	1	2	1	2	8	8	
	6	27	1	2	1	2	7	7	
29	1	1	3	4	4	2	17	29	
	2	4	3	4	3	2	15	28	
	3	11	3	4	3	2	9	28	
	4	14	3	4	3	2	6	27	
	5	15	3	4	3	2	3	27	
	6	30	3	4	3	2	1	27	
30	1	1	3	2	2	4	16	23	
	2	4	3	2	2	4	15	23	
	3	11	2	2	2	4	12	23	
	4	12	2	2	2	4	11	22	
	5	13	1	1	2	4	9	22	
	6	24	1	1	2	4	8	22	
31	1	4	3	2	3	4	23	20	
	2	7	3	2	2	3	20	18	
	3	8	3	2	2	3	18	17	
	4	14	2	2	2	3	15	16	
	5	16	1	1	2	3	13	15	
	6	26	1	1	2	3	10	14	
32	1	2	2	1	4	1	26	28	
	2	7	2	1	3	1	22	24	
	3	8	2	1	3	1	21	17	
	4	27	2	1	2	1	19	16	
	5	28	2	1	2	1	17	9	
	6	29	2	1	2	1	16	6	
33	1	1	5	5	4	3	20	18	
	2	6	5	4	4	3	19	15	
	3	10	5	3	4	3	19	11	
	4	25	5	3	4	2	18	7	
	5	26	5	2	4	2	18	6	
	6	27	5	1	4	1	17	4	
34	1	4	4	3	1	2	17	28	
	2	5	3	3	1	1	16	21	
	3	14	3	3	1	1	13	16	
	4	17	2	3	1	1	11	14	
	5	26	2	3	1	1	9	12	
	6	28	2	3	1	1	8	7	
35	1	4	3	4	5	3	14	26	
	2	9	3	4	4	3	14	26	
	3	17	3	4	4	3	13	26	
	4	20	3	4	3	3	12	26	
	5	27	3	4	3	2	11	26	
	6	29	3	4	2	2	10	26	
36	1	1	3	2	5	4	23	15	
	2	2	3	2	4	3	19	14	
	3	6	3	2	3	3	13	12	
	4	15	3	2	2	3	12	12	
	5	20	3	1	2	2	9	10	
	6	28	3	1	1	2	6	10	
37	1	5	1	4	5	2	3	4	
	2	6	1	3	4	1	3	4	
	3	12	1	3	4	1	3	3	
	4	16	1	2	4	1	3	4	
	5	18	1	1	4	1	2	4	
	6	20	1	1	4	1	2	3	
38	1	11	5	3	4	4	25	14	
	2	13	4	3	3	4	24	14	
	3	19	4	3	3	4	20	13	
	4	22	4	3	3	3	18	10	
	5	26	4	3	2	2	13	10	
	6	28	4	3	2	2	11	9	
39	1	6	5	4	4	3	18	19	
	2	8	4	4	3	3	15	15	
	3	9	4	4	3	3	13	12	
	4	10	4	4	3	2	7	9	
	5	18	4	3	3	2	7	6	
	6	28	4	3	3	2	4	3	
40	1	2	4	4	5	4	14	20	
	2	15	3	4	4	3	14	17	
	3	24	3	3	4	3	13	16	
	4	26	3	2	4	2	11	15	
	5	27	3	1	4	2	10	11	
	6	28	3	1	4	1	10	11	
41	1	3	4	4	1	2	27	14	
	2	5	3	4	1	1	24	10	
	3	7	3	4	1	1	21	8	
	4	8	2	4	1	1	18	8	
	5	11	2	4	1	1	16	6	
	6	20	2	4	1	1	14	4	
42	1	3	4	5	5	1	28	15	
	2	7	4	5	4	1	27	14	
	3	8	3	5	4	1	26	12	
	4	21	3	5	4	1	25	11	
	5	24	3	5	4	1	24	11	
	6	26	2	5	4	1	23	10	
43	1	8	2	5	3	5	10	17	
	2	12	2	4	2	5	10	17	
	3	22	2	3	2	5	8	14	
	4	23	2	2	1	5	6	12	
	5	26	2	1	1	5	6	9	
	6	28	2	1	1	5	3	7	
44	1	2	4	2	2	5	16	26	
	2	8	4	2	2	4	14	24	
	3	9	4	2	2	4	10	22	
	4	12	4	2	2	4	10	20	
	5	21	4	2	1	4	7	19	
	6	28	4	2	1	4	5	16	
45	1	4	5	4	3	3	9	27	
	2	16	4	4	2	3	8	27	
	3	20	3	4	2	3	8	27	
	4	22	3	4	2	2	7	26	
	5	23	2	4	1	2	7	26	
	6	29	2	4	1	1	6	26	
46	1	8	5	3	5	5	26	2	
	2	18	5	3	4	4	24	2	
	3	20	5	3	4	4	23	2	
	4	23	5	3	3	3	19	1	
	5	26	5	3	3	3	16	1	
	6	29	5	3	2	3	15	1	
47	1	3	3	5	4	5	25	4	
	2	6	2	4	3	5	25	3	
	3	10	2	3	3	5	19	3	
	4	23	2	2	2	5	15	2	
	5	25	1	1	2	5	13	1	
	6	30	1	1	2	5	8	1	
48	1	1	2	5	3	3	24	20	
	2	7	2	4	3	2	19	19	
	3	8	2	4	2	2	14	19	
	4	19	2	3	2	2	10	18	
	5	22	2	3	2	1	6	18	
	6	29	2	3	1	1	6	17	
49	1	9	4	4	4	2	18	19	
	2	10	3	3	4	2	15	18	
	3	17	3	3	4	2	10	18	
	4	21	3	2	4	2	8	17	
	5	22	2	1	4	2	7	16	
	6	26	2	1	4	2	4	16	
50	1	3	1	5	4	2	23	15	
	2	4	1	4	3	2	19	14	
	3	24	1	3	2	2	17	14	
	4	27	1	3	2	2	14	13	
	5	28	1	1	2	2	10	12	
	6	30	1	1	1	2	4	12	
51	1	6	4	1	4	3	28	27	
	2	7	4	1	3	2	28	24	
	3	12	3	1	3	2	28	21	
	4	13	3	1	3	2	28	18	
	5	20	2	1	3	2	27	15	
	6	21	2	1	3	2	27	11	
52	1	5	3	3	3	4	24	9	
	2	7	2	2	3	4	22	9	
	3	19	2	2	2	4	19	9	
	4	20	2	2	2	4	17	8	
	5	22	1	2	1	4	16	8	
	6	30	1	2	1	4	12	7	
53	1	9	5	2	5	5	5	28	
	2	15	4	1	5	4	5	23	
	3	16	3	1	5	4	5	20	
	4	21	2	1	5	3	5	19	
	5	24	2	1	5	3	5	14	
	6	29	1	1	5	3	5	13	
54	1	11	2	4	5	1	22	19	
	2	15	2	3	3	1	15	18	
	3	18	2	3	3	1	14	18	
	4	19	2	3	3	1	12	18	
	5	23	1	3	1	1	6	17	
	6	25	1	3	1	1	2	17	
55	1	7	4	2	5	5	17	18	
	2	8	3	1	3	4	13	16	
	3	14	2	1	3	4	12	15	
	4	23	2	1	3	3	11	15	
	5	24	2	1	1	3	7	13	
	6	27	1	1	1	2	6	13	
56	1	1	4	3	4	2	22	26	
	2	7	4	3	4	2	17	24	
	3	9	3	2	3	2	16	23	
	4	10	3	2	3	2	13	23	
	5	14	3	2	2	2	7	21	
	6	16	2	1	2	2	2	19	
57	1	3	1	4	3	4	27	27	
	2	4	1	4	3	4	25	20	
	3	10	1	3	3	4	16	18	
	4	14	1	2	3	4	12	12	
	5	17	1	2	3	3	12	11	
	6	20	1	1	3	3	6	6	
58	1	7	4	4	4	5	24	20	
	2	9	3	4	3	4	23	19	
	3	15	3	4	3	4	22	15	
	4	21	3	4	3	3	18	12	
	5	23	3	4	3	3	14	9	
	6	28	3	4	3	3	12	7	
59	1	4	2	4	3	3	15	12	
	2	6	2	3	2	3	12	12	
	3	7	2	3	2	2	11	12	
	4	13	2	2	2	2	9	12	
	5	14	2	2	1	2	7	12	
	6	16	2	2	1	1	6	12	
60	1	3	4	2	4	2	22	18	
	2	4	3	2	3	2	19	17	
	3	17	3	2	3	2	17	17	
	4	21	3	2	2	2	14	15	
	5	29	3	2	1	2	11	14	
	6	30	3	2	1	2	7	12	
61	1	8	4	2	2	5	17	27	
	2	15	3	2	2	3	15	27	
	3	19	3	2	2	3	14	23	
	4	21	3	2	2	2	12	18	
	5	22	3	2	2	2	12	15	
	6	30	3	2	2	1	10	14	
62	1	3	4	3	1	5	7	13	
	2	9	4	3	1	3	6	10	
	3	19	3	3	1	3	6	9	
	4	21	3	3	1	3	5	8	
	5	27	3	3	1	2	4	7	
	6	29	2	3	1	1	3	5	
63	1	3	4	3	2	4	16	20	
	2	10	4	3	2	4	15	18	
	3	12	4	3	2	4	14	17	
	4	13	4	3	2	4	12	14	
	5	14	3	3	1	4	9	9	
	6	23	3	3	1	4	8	7	
64	1	8	2	5	2	3	24	20	
	2	19	2	4	2	2	24	16	
	3	22	2	4	2	2	21	13	
	4	25	2	4	1	2	21	13	
	5	26	2	3	1	1	19	10	
	6	27	2	3	1	1	17	6	
65	1	5	4	4	1	4	16	29	
	2	7	4	4	1	4	12	27	
	3	11	4	4	1	4	10	27	
	4	18	4	4	1	3	9	24	
	5	28	4	3	1	2	5	24	
	6	29	4	3	1	2	5	23	
66	1	20	4	4	5	2	14	25	
	2	21	4	3	3	2	14	19	
	3	23	4	2	3	2	13	19	
	4	24	4	2	2	2	11	16	
	5	26	4	2	2	2	10	12	
	6	27	4	1	1	2	7	11	
67	1	6	5	2	4	4	11	24	
	2	10	4	2	4	4	11	23	
	3	14	4	2	4	4	11	22	
	4	21	3	2	4	4	11	22	
	5	22	3	2	3	4	11	21	
	6	29	2	2	3	4	11	20	
68	1	12	5	1	3	5	28	17	
	2	15	4	1	3	4	28	16	
	3	20	4	1	3	4	28	13	
	4	23	3	1	3	3	28	7	
	5	24	3	1	2	3	28	6	
	6	25	2	1	2	3	28	2	
69	1	5	4	3	5	4	13	24	
	2	7	4	3	4	3	11	22	
	3	12	3	3	4	3	9	16	
	4	19	3	3	4	3	6	15	
	5	22	2	3	3	2	4	7	
	6	24	1	3	3	2	4	3	
70	1	6	4	2	2	4	30	22	
	2	11	4	1	1	3	28	20	
	3	12	3	1	1	3	28	16	
	4	14	3	1	1	3	26	14	
	5	24	1	1	1	1	26	12	
	6	27	1	1	1	1	25	12	
71	1	2	1	4	3	2	24	22	
	2	3	1	4	3	2	21	17	
	3	4	1	3	2	2	20	16	
	4	11	1	3	2	2	19	11	
	5	24	1	3	1	2	18	10	
	6	29	1	2	1	2	17	5	
72	1	2	4	4	4	3	23	25	
	2	6	4	4	3	2	20	22	
	3	7	3	4	3	2	20	19	
	4	10	3	4	2	1	19	16	
	5	16	3	4	2	1	18	15	
	6	19	2	4	2	1	16	12	
73	1	5	3	2	3	4	23	11	
	2	6	3	2	3	4	22	10	
	3	7	3	2	2	3	18	10	
	4	8	2	2	2	3	12	10	
	5	10	2	2	2	1	10	8	
	6	28	2	2	1	1	6	8	
74	1	1	5	4	1	4	26	18	
	2	2	4	4	1	3	24	16	
	3	4	4	4	1	3	18	16	
	4	9	3	4	1	2	17	12	
	5	17	3	4	1	1	14	10	
	6	26	3	4	1	1	7	9	
75	1	5	4	4	5	3	27	20	
	2	9	4	3	4	3	22	18	
	3	18	4	3	4	3	18	16	
	4	21	3	3	4	3	16	14	
	5	23	2	3	4	3	12	10	
	6	26	2	3	4	3	3	9	
76	1	2	2	4	4	3	26	24	
	2	6	2	3	3	3	26	20	
	3	8	2	2	2	3	21	17	
	4	18	2	2	2	3	17	12	
	5	26	2	1	1	3	15	10	
	6	28	2	1	1	3	12	6	
77	1	7	3	3	4	3	25	24	
	2	15	2	3	4	2	23	19	
	3	18	2	2	3	2	18	17	
	4	19	2	2	3	2	17	16	
	5	20	2	1	2	2	11	14	
	6	25	2	1	1	2	6	11	
78	1	3	5	5	1	3	29	15	
	2	6	4	5	1	3	25	11	
	3	7	3	5	1	3	18	10	
	4	10	3	5	1	3	16	8	
	5	12	1	5	1	3	13	5	
	6	14	1	5	1	3	8	3	
79	1	6	5	1	3	2	19	20	
	2	7	5	1	3	2	17	16	
	3	8	5	1	3	2	17	13	
	4	14	5	1	3	2	15	8	
	5	24	5	1	3	2	15	5	
	6	26	5	1	3	2	14	2	
80	1	3	4	5	3	2	14	17	
	2	4	4	4	3	2	12	16	
	3	7	3	4	3	2	10	16	
	4	12	3	3	3	2	8	15	
	5	17	3	2	3	2	4	14	
	6	19	2	2	3	2	3	14	
81	1	3	2	4	1	3	6	23	
	2	11	1	4	1	3	5	23	
	3	15	1	4	1	3	5	22	
	4	24	1	3	1	3	4	22	
	5	28	1	2	1	2	3	22	
	6	29	1	2	1	2	3	21	
82	1	2	3	4	4	4	25	26	
	2	6	3	3	4	3	25	25	
	3	7	3	3	4	3	25	24	
	4	8	3	3	4	3	25	23	
	5	17	2	3	4	2	25	24	
	6	22	2	3	4	1	25	24	
83	1	1	3	5	2	5	25	17	
	2	14	3	4	2	4	20	14	
	3	16	3	3	2	4	18	14	
	4	23	3	3	2	4	13	10	
	5	25	3	1	2	3	10	8	
	6	27	3	1	2	3	9	8	
84	1	5	1	2	1	4	13	18	
	2	15	1	2	1	4	13	16	
	3	16	1	2	1	3	9	14	
	4	23	1	2	1	3	9	10	
	5	24	1	1	1	3	6	5	
	6	28	1	1	1	2	5	4	
85	1	1	3	3	5	4	13	13	
	2	7	3	3	4	3	12	13	
	3	16	3	3	4	3	12	11	
	4	19	3	2	3	2	12	10	
	5	20	2	2	2	1	11	8	
	6	28	2	2	2	1	11	7	
86	1	10	5	4	4	3	19	2	
	2	16	4	4	3	3	15	1	
	3	18	4	4	3	3	12	1	
	4	21	4	4	3	3	9	1	
	5	23	3	4	3	3	8	1	
	6	24	3	4	3	3	4	1	
87	1	7	4	2	5	4	28	22	
	2	10	4	2	4	3	27	19	
	3	24	3	2	3	3	27	15	
	4	25	3	2	3	3	26	13	
	5	26	3	2	2	3	26	11	
	6	28	2	2	2	3	25	9	
88	1	7	3	5	2	4	12	17	
	2	11	2	4	2	4	11	17	
	3	16	2	4	2	4	10	15	
	4	17	2	3	1	4	9	11	
	5	29	2	3	1	3	8	10	
	6	30	2	3	1	3	7	8	
89	1	9	1	3	4	4	18	4	
	2	11	1	3	3	4	18	4	
	3	13	1	2	3	4	16	4	
	4	17	1	2	2	4	16	3	
	5	19	1	1	1	4	14	3	
	6	20	1	1	1	4	14	2	
90	1	5	1	4	3	2	27	27	
	2	11	1	3	3	2	26	22	
	3	12	1	3	3	2	23	14	
	4	13	1	3	3	2	22	10	
	5	17	1	2	3	1	17	5	
	6	22	1	2	3	1	15	2	
91	1	2	1	5	3	4	10	28	
	2	3	1	4	3	3	10	27	
	3	4	1	3	2	3	8	26	
	4	11	1	3	2	3	7	25	
	5	19	1	3	2	3	5	23	
	6	26	1	2	1	3	4	23	
92	1	1	2	1	5	2	7	27	
	2	2	2	1	4	2	6	22	
	3	13	2	1	3	2	5	20	
	4	18	2	1	2	2	5	16	
	5	21	2	1	1	2	3	12	
	6	26	2	1	1	2	1	9	
93	1	17	5	4	5	1	21	26	
	2	18	4	4	4	1	19	24	
	3	22	4	3	3	1	17	21	
	4	27	3	3	3	1	17	19	
	5	28	3	3	2	1	12	18	
	6	29	3	2	2	1	11	16	
94	1	4	3	3	5	5	23	23	
	2	7	3	3	5	5	19	21	
	3	17	3	3	5	5	13	14	
	4	20	3	2	5	5	11	14	
	5	26	3	1	5	5	8	7	
	6	27	3	1	5	5	3	7	
95	1	2	4	2	1	4	24	28	
	2	8	3	2	1	4	22	25	
	3	9	3	2	1	3	22	19	
	4	24	3	2	1	3	21	18	
	5	25	2	2	1	1	20	11	
	6	26	2	2	1	1	20	10	
96	1	2	4	4	4	3	21	14	
	2	8	4	3	4	3	20	14	
	3	9	4	3	4	3	19	12	
	4	26	4	2	4	3	17	12	
	5	28	4	1	4	3	16	11	
	6	29	4	1	4	3	16	10	
97	1	4	1	5	4	5	11	20	
	2	5	1	4	4	4	11	20	
	3	12	1	4	4	3	9	20	
	4	24	1	3	4	2	8	20	
	5	29	1	3	4	2	6	20	
	6	30	1	3	4	1	3	20	
98	1	8	4	4	4	2	11	29	
	2	10	3	3	4	2	8	28	
	3	18	2	3	4	2	6	26	
	4	19	2	3	3	2	5	25	
	5	22	1	2	3	2	4	25	
	6	29	1	2	2	2	1	23	
99	1	9	5	3	4	4	20	22	
	2	11	5	3	4	3	18	21	
	3	12	5	3	4	3	18	20	
	4	17	5	3	4	2	17	19	
	5	23	5	3	4	1	16	18	
	6	29	5	3	4	1	15	18	
100	1	5	2	1	3	4	29	11	
	2	7	1	1	3	3	26	11	
	3	10	1	1	3	3	20	11	
	4	25	1	1	3	2	20	10	
	5	29	1	1	2	2	14	9	
	6	30	1	1	2	1	14	9	
101	1	1	4	3	2	3	29	10	
	2	5	3	2	2	2	28	10	
	3	9	3	2	2	2	26	8	
	4	10	3	2	2	2	25	5	
	5	16	3	2	1	2	25	3	
	6	28	3	2	1	2	23	2	
102	1	0	0	0	0	0	0	0	
************************************************************************

 RESOURCE AVAILABILITIES 
	R 1	R 2	R 3	R 4	N 1	N 2
	88	85	80	82	1733	1671

************************************************************************
